100
120
100
99
99
99
98
96
96
96
96
95
94
93
92
92
90
90
90
89
88
86
84
84
84
80
80
79
79
79
78
75
75
75
75
74
74
74
72
72
71
71
70
70
70
69
69
69
68
67
67
67
67
66
66
65
63
61
60
60
58
57
57
57
56
56
55
55
54
53
52
51
50
50
47
47
46
45
43
43
43
42
41
41
40
40
39
39
39
38
37
37
37
37
34
34
33
33
32
32
32
30
